c This graph is produced by Sof A. Lee
c Experiment on graph colouring using phase coupled oscillators
c Date: 17/02/2008 11:21:47 PM
p edge 7 12
e 1 7
e 1 3
e 1 4
e 2 5
e 2 3
e 2 7
e 3 5
e 3 6
e 3 7
e 3 4
e 4 6
e 5 6
